&GLOBAL
  PROJECT multiple-walker-MTD
  PROGRAM FARMING
  RUN_TYPE NONE
&END GLOBAL
&FARMING
  NGROUPS 2
  &JOB
    DIRECTORY walker-0
    INPUT_FILE_NAME cp2k.inp
  &END JOB
  &JOB
    DIRECTORY walker-1
    INPUT_FILE_NAME cp2k.inp
  &END JOB
&END FARMING

