! UKS CAM-B3LYP ma-def2-TZVP Opt
%pal nprocs 32 end

%scf BrokenSym 1,1 end

%geom Scan B 0 1 = 3.5, 1.0, 26 end end

* xyz -1 1
  N      0.000708    0.000000   -0.000000
  O      1.248482   -0.000000    0.000000
  O     -0.622915   -1.080802    0.000000
  O     -0.622915    1.080802    0.000000
*
