! UKS REVPBE0 def2-SVP Opt
%pal nprocs 32 end

%scf BrokenSym 1,1 end

%geom Scan B 0 1 = 3.5, 1.0, 26 end end

* xyz -1 1
  N      0.000790   -0.000000   -0.000000
  O      1.248133    0.000000    0.000000
  O     -0.622781   -1.080360    0.000000
  O     -0.622781    1.080361    0.000000
*
