! ma-def2-TZVP VeryTightSCF MOREAD
%pal nprocs 32 end
%moinp "guess.qro"

%casscf nel 10
        norb 9
        nroots 3,4
        mult 1,3
        maxrot 0.2
        DThresh 1e-6
        end

%output
Print[ P_Basis ] 2
Print[ P_MOs ] 1
end

* xyzfile -1 1 nitrate_cam-b3lyp_scan.00pts.xyz
